Mack/Bortfeldt(2008)
Bin-Packing-Problem
BP-RG/SBSBPP/SSSCSP
Testcase-ID	1
Problem-ID	50
no_item_types	12
no_items	1372
CONTAINER_DATA (l,w,h)	587	233	220
ITEMS_DATA:
Type	x	y	z	no_items
1	102	96	59	106
2	95	76	60	136
3	99	90	32	115
4	109	63	28	119
5	64	60	47	111
6	80	52	42	96
7	74	64	35	119
8	68	66	31	115
9	120	34	26	107
10	61	47	34	120
11	53	45	36	124
12	53	40	36	104
